400
75 75
1 52 486
2 52 774
3 52 203
4 52 574
5 52 777
6 52 992
7 52 192
8 52 494
9 52 99
10 52 956
11 51 972
12 51 324
13 51 597
14 51 455
15 51 809
16 51 967
17 51 695
18 51 85
19 51 840
20 51 982
21 51 459
22 51 540
23 51 162
24 51 897
25 50 833
26 50 499
27 50 934
28 50 443
29 50 434
30 50 19
31 50 66
32 50 880
33 50 639
34 50 237
35 50 91
36 50 311
37 50 572
38 49 700
39 49 140
40 49 364
41 49 311
42 49 818
43 49 69
44 49 973
45 48 716
46 48 384
47 48 396
48 48 358
49 48 442
50 48 384
51 48 15
52 48 550
53 48 119
54 48 393
55 48 13
56 48 274
57 48 987
58 48 545
59 48 284
60 47 546
61 47 700
62 47 428
63 47 60
64 47 446
65 47 185
66 47 180
67 47 624
68 47 246
69 47 507
70 47 134
71 46 604
72 46 470
73 46 252
74 46 190
75 46 588
76 46 103
77 46 486
78 46 56
79 46 320
80 46 499
81 46 114
82 45 210
83 45 687
84 45 35
85 45 746
86 45 448
87 45 598
88 45 546
89 45 50
90 45 662
91 45 430
92 45 92
93 44 324
94 44 13
95 44 48
96 44 349
97 44 983
98 44 717
99 44 736
100 44 203
101 44 108
102 43 896
103 43 319
104 43 870
105 43 135
106 43 263
107 43 331
108 43 865
109 43 16
110 43 800
111 43 258
112 43 137
113 43 676
114 43 90
115 43 799
116 42 851
117 42 690
118 42 343
119 42 376
120 42 423
121 42 707
122 42 450
123 42 510
124 42 353
125 42 356
126 42 856
127 42 160
128 42 534
129 42 504
130 42 412
131 41 535
132 41 93
133 41 160
134 41 591
135 41 308
136 41 631
137 41 38
138 41 38
139 41 798
140 41 409
141 41 130
142 41 835
143 41 934
144 41 711
145 41 865
146 40 470
147 40 618
148 40 482
149 40 52
150 40 634
151 40 940
152 40 724
153 40 424
154 40 534
155 40 355
156 40 130
157 40 348
158 40 354
159 39 934
160 39 765
161 39 320
162 39 670
163 39 981
164 39 122
165 39 517
166 38 517
167 38 148
168 38 448
169 38 838
170 38 321
171 38 943
172 38 525
173 38 798
174 38 59
175 38 195
176 38 947
177 38 751
178 38 799
179 37 688
180 37 483
181 37 126
182 37 602
183 37 145
184 37 562
185 36 619
186 36 771
187 36 552
188 36 474
189 36 406
190 36 126
191 36 773
192 36 321
193 36 681
194 36 678
195 36 57
196 36 505
197 36 327
198 36 658
199 36 103
200 35 975
201 35 601
202 35 547
203 35 397
204 35 883
205 35 520
206 35 1
207 35 506
208 35 42
209 35 606
210 35 99
211 35 212
212 35 99
213 35 961
214 34 883
215 34 48
216 34 954
217 34 507
218 34 609
219 34 926
220 34 765
221 34 571
222 33 46
223 33 202
224 33 345
225 33 35
226 33 603
227 33 561
228 33 819
229 33 757
230 33 106
231 33 977
232 33 429
233 33 543
234 33 382
235 33 978
236 32 134
237 32 882
238 32 133
239 32 738
240 32 27
241 32 394
242 32 562
243 31 481
244 31 328
245 31 173
246 31 464
247 31 303
248 31 229
249 31 166
250 31 107
251 31 404
252 31 298
253 30 98
254 30 876
255 30 182
256 30 587
257 30 470
258 30 755
259 30 73
260 29 668
261 29 847
262 29 20
263 29 462
264 29 551
265 29 911
266 29 553
267 29 465
268 29 207
269 29 419
270 29 701
271 29 83
272 28 363
273 28 929
274 28 414
275 28 790
276 27 918
277 27 963
278 27 410
279 27 838
280 27 580
281 27 72
282 27 532
283 26 740
284 26 649
285 26 8
286 26 117
287 26 817
288 26 385
289 26 724
290 26 374
291 26 824
292 26 713
293 26 179
294 26 708
295 25 182
296 25 623
297 25 143
298 25 434
299 25 153
300 25 371
301 25 81
302 25 487
303 25 259
304 25 757
305 24 71
306 24 380
307 24 233
308 24 712
309 24 391
310 24 276
311 23 517
312 23 988
313 23 437
314 23 324
315 23 304
316 23 587
317 23 986
318 23 556
319 23 209
320 23 547
321 22 805
322 22 278
323 22 617
324 22 273
325 22 309
326 22 53
327 22 965
328 22 293
329 22 264
330 22 674
331 22 322
332 22 525
333 21 901
334 21 974
335 21 810
336 21 877
337 21 915
338 21 352
339 21 296
340 21 39
341 21 905
342 20 144
343 20 946
344 20 563
345 20 955
346 20 437
347 20 813
348 20 419
349 20 424
350 20 638
351 20 676
352 20 262
353 20 699
354 20 225
355 20 533
356 19 247
357 19 35
358 19 377
359 19 198
360 19 420
361 19 470
362 19 95
363 18 53
364 18 373
365 18 123
366 18 821
367 18 82
368 18 428
369 18 133
370 18 717
371 17 643
372 17 118
373 17 670
374 17 17
375 17 228
376 16 750
377 16 762
378 16 364
379 16 519
380 16 578
381 16 612
382 16 138
383 16 230
384 16 933
385 16 396
386 16 368
387 16 348
388 16 644
389 16 130
390 16 253
391 15 887
392 15 719
393 15 694
394 15 872
395 15 20
396 15 454
397 15 492
398 15 84
399 15 112
400 15 768
